60
1 0 1
2 0 4
2 1 3
3 0 1
3 1 3
3 2 2
4 0 3
4 1 4
4 2 2
4 3 5
5 0 5
5 1 2
5 2 6
5 3 4
5 4 2
6 0 5
6 1 4
6 2 1
6 3 6
6 4 5
6 5 4
7 0 5
7 1 6
7 2 5
7 3 5
7 4 1
7 5 4
7 6 6
8 0 4
8 1 3
8 2 1
8 3 6
8 4 5
8 5 4
8 6 3
8 7 5
9 0 4
9 1 1
9 2 3
9 3 6
9 4 5
9 5 5
9 6 5
9 7 3
9 8 6
10 0 6
10 1 6
10 2 1
10 3 2
10 4 4
10 5 3
10 6 3
10 7 6
10 8 5
10 9 5
11 0 2
11 1 2
11 2 5
11 3 4
11 4 1
11 5 3
11 6 5
11 7 1
11 8 2
11 9 1
11 10 3
12 0 1
12 1 6
12 2 5
12 3 3
12 4 1
12 5 6
12 6 6
12 7 2
12 8 6
12 9 5
12 10 5
12 11 2
13 0 1
13 1 4
13 2 2
13 3 4
13 4 1
13 5 6
13 6 6
13 7 3
13 8 3
13 9 4
13 10 3
13 11 5
13 12 1
14 0 4
14 1 6
14 2 6
14 3 4
14 4 4
14 5 2
14 6 3
14 7 5
14 8 3
14 9 5
14 10 2
14 11 2
14 12 2
14 13 1
15 0 1
15 1 1
15 2 6
15 3 6
15 4 4
15 5 1
15 6 3
15 7 5
15 8 6
15 9 2
15 10 1
15 11 4
15 12 1
15 13 1
15 14 2
16 0 2
16 1 5
16 2 2
16 3 5
16 4 3
16 5 6
16 6 6
16 7 3
16 8 5
16 9 1
16 10 3
16 11 1
16 12 2
16 13 3
16 14 6
16 15 3
17 0 3
17 1 3
17 2 5
17 3 4
17 4 3
17 5 3
17 6 1
17 7 4
17 8 4
17 9 1
17 10 2
17 11 4
17 12 6
17 13 6
17 14 3
17 15 3
17 16 6
18 0 6
18 1 5
18 2 5
18 3 6
18 4 1
18 5 5
18 6 3
18 7 4
18 8 4
18 9 1
18 10 5
18 11 4
18 12 3
18 13 1
18 14 3
18 15 6
18 16 6
18 17 3
19 0 3
19 1 6
19 2 4
19 3 5
19 4 5
19 5 3
19 6 2
19 7 3
19 8 3
19 9 5
19 10 4
19 11 2
19 12 2
19 13 2
19 14 6
19 15 5
19 16 5
19 17 1
19 18 3
20 0 5
20 1 5
20 2 4
20 3 1
20 4 4
20 5 6
20 6 4
20 7 1
20 8 5
20 9 5
20 10 2
20 11 1
20 12 3
20 13 6
20 14 1
20 15 4
20 16 5
20 17 3
20 18 6
20 19 6
21 0 3
21 1 4
21 2 4
21 3 3
21 4 3
21 5 1
21 6 2
21 7 5
21 8 6
21 9 6
21 10 2
21 11 1
21 12 6
21 13 1
21 14 2
21 15 4
21 16 2
21 17 5
21 18 4
21 19 4
21 20 1
22 0 3
22 1 3
22 2 6
22 3 6
22 4 6
22 5 5
22 6 3
22 7 1
22 8 1
22 9 3
22 10 1
22 11 2
22 12 2
22 13 4
22 14 4
22 15 4
22 16 3
22 17 2
22 18 4
22 19 6
22 20 3
22 21 3
23 0 1
23 1 5
23 2 3
23 3 5
23 4 5
23 5 1
23 6 2
23 7 3
23 8 1
23 9 4
23 10 2
23 11 2
23 12 2
23 13 5
23 14 4
23 15 6
23 16 1
23 17 2
23 18 2
23 19 4
23 20 2
23 21 1
23 22 1
24 0 4
24 1 1
24 2 5
24 3 5
24 4 5
24 5 3
24 6 2
24 7 1
24 8 5
24 9 6
24 10 5
24 11 3
24 12 6
24 13 6
24 14 5
24 15 5
24 16 1
24 17 6
24 18 2
24 19 3
24 20 3
24 21 4
24 22 2
24 23 2
25 0 6
25 1 5
25 2 5
25 3 2
25 4 2
25 5 4
25 6 4
25 7 2
25 8 1
25 9 6
25 10 2
25 11 5
25 12 1
25 13 2
25 14 6
25 15 3
25 16 6
25 17 6
25 18 6
25 19 5
25 20 3
25 21 6
25 22 5
25 23 6
25 24 4
26 0 3
26 1 1
26 2 4
26 3 2
26 4 6
26 5 3
26 6 6
26 7 5
26 8 4
26 9 2
26 10 1
26 11 1
26 12 2
26 13 3
26 14 3
26 15 4
26 16 1
26 17 1
26 18 1
26 19 5
26 20 5
26 21 6
26 22 5
26 23 5
26 24 3
26 25 2
27 0 3
27 1 5
27 2 6
27 3 4
27 4 6
27 5 3
27 6 4
27 7 4
27 8 1
27 9 5
27 10 3
27 11 4
27 12 5
27 13 4
27 14 2
27 15 2
27 16 1
27 17 1
27 18 6
27 19 5
27 20 3
27 21 1
27 22 3
27 23 2
27 24 3
27 25 6
27 26 3
28 0 5
28 1 3
28 2 4
28 3 2
28 4 5
28 5 3
28 6 4
28 7 2
28 8 2
28 9 3
28 10 6
28 11 3
28 12 3
28 13 3
28 14 4
28 15 6
28 16 1
28 17 2
28 18 4
28 19 4
28 20 3
28 21 5
28 22 6
28 23 6
28 24 4
28 25 2
28 26 1
28 27 2
29 0 5
29 1 5
29 2 5
29 3 2
29 4 4
29 5 4
29 6 3
29 7 3
29 8 4
29 9 5
29 10 2
29 11 3
29 12 4
29 13 3
29 14 2
29 15 3
29 16 2
29 17 2
29 18 6
29 19 1
29 20 1
29 21 3
29 22 4
29 23 6
29 24 6
29 25 3
29 26 2
29 27 1
29 28 5
30 0 1
30 1 4
30 2 5
30 3 2
30 4 6
30 5 6
30 6 4
30 7 4
30 8 6
30 9 1
30 10 1
30 11 3
30 12 2
30 13 5
30 14 5
30 15 5
30 16 3
30 17 3
30 18 6
30 19 2
30 20 2
30 21 6
30 22 6
30 23 1
30 24 1
30 25 1
30 26 6
30 27 5
30 28 1
30 29 4
31 0 6
31 1 4
31 2 2
31 3 2
31 4 6
31 5 6
31 6 3
31 7 5
31 8 4
31 9 5
31 10 5
31 11 6
31 12 1
31 13 6
31 14 4
31 15 2
31 16 2
31 17 2
31 18 3
31 19 3
31 20 4
31 21 2
31 22 3
31 23 5
31 24 4
31 25 3
31 26 6
31 27 6
31 28 1
31 29 6
31 30 6
32 0 3
32 1 6
32 2 4
32 3 2
32 4 1
32 5 4
32 6 5
32 7 3
32 8 5
32 9 2
32 10 6
32 11 6
32 12 3
32 13 5
32 14 1
32 15 1
32 16 3
32 17 2
32 18 3
32 19 3
32 20 2
32 21 2
32 22 6
32 23 4
32 24 5
32 25 6
32 26 4
32 27 1
32 28 5
32 29 2
32 30 1
32 31 2
33 0 4
33 1 6
33 2 6
33 3 4
33 4 2
33 5 2
33 6 6
33 7 6
33 8 3
33 9 1
33 10 1
33 11 2
33 12 1
33 13 6
33 14 6
33 15 5
33 16 2
33 17 2
33 18 6
33 19 2
33 20 2
33 21 4
33 22 3
33 23 6
33 24 2
33 25 2
33 26 4
33 27 6
33 28 4
33 29 1
33 30 5
33 31 2
33 32 5
34 0 2
34 1 6
34 2 2
34 3 5
34 4 5
34 5 6
34 6 4
34 7 6
34 8 5
34 9 4
34 10 2
34 11 6
34 12 2
34 13 4
34 14 2
34 15 5
34 16 5
34 17 4
34 18 1
34 19 4
34 20 1
34 21 5
34 22 1
34 23 1
34 24 6
34 25 4
34 26 6
34 27 3
34 28 2
34 29 4
34 30 4
34 31 3
34 32 5
34 33 6
35 0 5
35 1 1
35 2 1
35 3 6
35 4 2
35 5 6
35 6 5
35 7 3
35 8 3
35 9 3
35 10 5
35 11 4
35 12 2
35 13 1
35 14 3
35 15 3
35 16 1
35 17 1
35 18 2
35 19 1
35 20 1
35 21 2
35 22 3
35 23 6
35 24 6
35 25 6
35 26 4
35 27 5
35 28 2
35 29 6
35 30 3
35 31 6
35 32 5
35 33 2
35 34 1
36 0 5
36 1 5
36 2 2
36 3 3
36 4 4
36 5 4
36 6 4
36 7 4
36 8 1
36 9 1
36 10 6
36 11 6
36 12 6
36 13 6
36 14 4
36 15 2
36 16 3
36 17 2
36 18 3
36 19 4
36 20 6
36 21 4
36 22 3
36 23 5
36 24 2
36 25 2
36 26 1
36 27 3
36 28 2
36 29 3
36 30 5
36 31 6
36 32 5
36 33 1
36 34 4
36 35 4
37 0 4
37 1 1
37 2 4
37 3 5
37 4 4
37 5 2
37 6 5
37 7 2
37 8 2
37 9 1
37 10 4
37 11 3
37 12 2
37 13 5
37 14 5
37 15 6
37 16 5
37 17 6
37 18 3
37 19 5
37 20 1
37 21 2
37 22 3
37 23 2
37 24 1
37 25 6
37 26 4
37 27 2
37 28 6
37 29 6
37 30 4
37 31 1
37 32 5
37 33 5
37 34 6
37 35 1
37 36 5
38 0 3
38 1 4
38 2 4
38 3 3
38 4 6
38 5 5
38 6 4
38 7 1
38 8 4
38 9 4
38 10 4
38 11 6
38 12 2
38 13 4
38 14 4
38 15 5
38 16 4
38 17 5
38 18 3
38 19 2
38 20 4
38 21 5
38 22 6
38 23 3
38 24 6
38 25 5
38 26 5
38 27 1
38 28 6
38 29 6
38 30 2
38 31 3
38 32 6
38 33 3
38 34 4
38 35 6
38 36 6
38 37 6
39 0 5
39 1 6
39 2 5
39 3 3
39 4 3
39 5 2
39 6 1
39 7 1
39 8 2
39 9 6
39 10 6
39 11 5
39 12 6
39 13 3
39 14 4
39 15 4
39 16 1
39 17 1
39 18 3
39 19 1
39 20 5
39 21 1
39 22 3
39 23 4
39 24 4
39 25 5
39 26 5
39 27 4
39 28 3
39 29 6
39 30 3
39 31 4
39 32 5
39 33 3
39 34 6
39 35 6
39 36 6
39 37 3
39 38 1
40 0 1
40 1 6
40 2 2
40 3 3
40 4 4
40 5 6
40 6 6
40 7 3
40 8 5
40 9 5
40 10 2
40 11 2
40 12 6
40 13 1
40 14 2
40 15 1
40 16 1
40 17 6
40 18 3
40 19 1
40 20 6
40 21 6
40 22 1
40 23 4
40 24 1
40 25 3
40 26 2
40 27 6
40 28 5
40 29 4
40 30 4
40 31 2
40 32 6
40 33 3
40 34 5
40 35 5
40 36 3
40 37 4
40 38 3
40 39 4
41 0 3
41 1 4
41 2 1
41 3 2
41 4 1
41 5 6
41 6 6
41 7 1
41 8 1
41 9 6
41 10 2
41 11 3
41 12 1
41 13 1
41 14 4
41 15 3
41 16 4
41 17 3
41 18 5
41 19 4
41 20 3
41 21 5
41 22 4
41 23 3
41 24 1
41 25 3
41 26 5
41 27 3
41 28 6
41 29 5
41 30 1
41 31 2
41 32 6
41 33 2
41 34 4
41 35 1
41 36 5
41 37 5
41 38 6
41 39 6
41 40 3
42 0 6
42 1 6
42 2 3
42 3 1
42 4 6
42 5 4
42 6 4
42 7 4
42 8 2
42 9 2
42 10 5
42 11 3
42 12 3
42 13 2
42 14 1
42 15 1
42 16 2
42 17 1
42 18 2
42 19 2
42 20 1
42 21 5
42 22 3
42 23 3
42 24 6
42 25 3
42 26 2
42 27 6
42 28 1
42 29 6
42 30 5
42 31 2
42 32 3
42 33 5
42 34 4
42 35 2
42 36 1
42 37 6
42 38 2
42 39 3
42 40 2
42 41 4
43 0 1
43 1 4
43 2 2
43 3 2
43 4 6
43 5 6
43 6 1
43 7 4
43 8 2
43 9 6
43 10 1
43 11 4
43 12 1
43 13 5
43 14 2
43 15 1
43 16 1
43 17 2
43 18 5
43 19 1
43 20 5
43 21 4
43 22 3
43 23 2
43 24 5
43 25 1
43 26 1
43 27 5
43 28 1
43 29 4
43 30 3
43 31 1
43 32 4
43 33 6
43 34 5
43 35 1
43 36 6
43 37 6
43 38 1
43 39 4
43 40 6
43 41 5
43 42 6
44 0 6
44 1 3
44 2 3
44 3 5
44 4 3
44 5 3
44 6 1
44 7 3
44 8 6
44 9 3
44 10 3
44 11 4
44 12 2
44 13 4
44 14 1
44 15 2
44 16 2
44 17 1
44 18 6
44 19 4
44 20 3
44 21 2
44 22 4
44 23 3
44 24 4
44 25 6
44 26 5
44 27 3
44 28 1
44 29 1
44 30 6
44 31 2
44 32 5
44 33 6
44 34 2
44 35 6
44 36 6
44 37 1
44 38 3
44 39 6
44 40 1
44 41 5
44 42 5
44 43 2
45 0 3
45 1 3
45 2 3
45 3 1
45 4 5
45 5 5
45 6 4
45 7 3
45 8 5
45 9 4
45 10 2
45 11 2
45 12 2
45 13 2
45 14 3
45 15 6
45 16 2
45 17 1
45 18 5
45 19 2
45 20 4
45 21 3
45 22 4
45 23 3
45 24 5
45 25 5
45 26 4
45 27 4
45 28 4
45 29 4
45 30 2
45 31 4
45 32 3
45 33 2
45 34 3
45 35 5
45 36 5
45 37 3
45 38 1
45 39 5
45 40 4
45 41 3
45 42 6
45 43 6
45 44 1
46 0 4
46 1 6
46 2 1
46 3 6
46 4 6
46 5 2
46 6 6
46 7 3
46 8 6
46 9 2
46 10 5
46 11 3
46 12 1
46 13 3
46 14 4
46 15 5
46 16 5
46 17 3
46 18 6
46 19 2
46 20 5
46 21 6
46 22 6
46 23 2
46 24 5
46 25 2
46 26 2
46 27 2
46 28 5
46 29 2
46 30 4
46 31 3
46 32 1
46 33 2
46 34 2
46 35 5
46 36 2
46 37 6
46 38 1
46 39 1
46 40 2
46 41 2
46 42 6
46 43 4
46 44 4
46 45 1
47 0 5
47 1 5
47 2 4
47 3 1
47 4 2
47 5 5
47 6 2
47 7 4
47 8 1
47 9 1
47 10 2
47 11 4
47 12 2
47 13 4
47 14 2
47 15 2
47 16 6
47 17 4
47 18 5
47 19 6
47 20 3
47 21 2
47 22 6
47 23 3
47 24 5
47 25 1
47 26 5
47 27 4
47 28 5
47 29 5
47 30 2
47 31 4
47 32 3
47 33 5
47 34 5
47 35 6
47 36 1
47 37 4
47 38 3
47 39 3
47 40 2
47 41 4
47 42 5
47 43 1
47 44 3
47 45 1
47 46 1
48 0 4
48 1 4
48 2 2
48 3 1
48 4 5
48 5 2
48 6 3
48 7 3
48 8 6
48 9 5
48 10 5
48 11 5
48 12 3
48 13 6
48 14 6
48 15 5
48 16 5
48 17 2
48 18 4
48 19 3
48 20 4
48 21 3
48 22 3
48 23 6
48 24 1
48 25 5
48 26 3
48 27 1
48 28 5
48 29 2
48 30 6
48 31 2
48 32 6
48 33 6
48 34 1
48 35 3
48 36 1
48 37 4
48 38 3
48 39 4
48 40 5
48 41 1
48 42 2
48 43 2
48 44 1
48 45 1
48 46 6
48 47 4
49 0 4
49 1 3
49 2 1
49 3 3
49 4 4
49 5 6
49 6 1
49 7 2
49 8 4
49 9 3
49 10 6
49 11 5
49 12 6
49 13 5
49 14 5
49 15 1
49 16 4
49 17 2
49 18 5
49 19 2
49 20 1
49 21 3
49 22 2
49 23 1
49 24 5
49 25 6
49 26 1
49 27 1
49 28 2
49 29 4
49 30 5
49 31 1
49 32 5
49 33 3
49 34 4
49 35 1
49 36 1
49 37 4
49 38 6
49 39 3
49 40 6
49 41 6
49 42 2
49 43 2
49 44 5
49 45 6
49 46 2
49 47 1
49 48 4
50 0 3
50 1 6
50 2 6
50 3 1
50 4 1
50 5 6
50 6 1
50 7 4
50 8 5
50 9 2
50 10 3
50 11 6
50 12 1
50 13 6
50 14 2
50 15 1
50 16 5
50 17 2
50 18 4
50 19 6
50 20 4
50 21 4
50 22 1
50 23 4
50 24 3
50 25 1
50 26 5
50 27 4
50 28 3
50 29 6
50 30 3
50 31 2
50 32 1
50 33 4
50 34 1
50 35 6
50 36 6
50 37 5
50 38 3
50 39 1
50 40 3
50 41 2
50 42 3
50 43 2
50 44 3
50 45 2
50 46 3
50 47 4
50 48 4
50 49 3
51 0 6
51 1 2
51 2 1
51 3 2
51 4 2
51 5 6
51 6 1
51 7 1
51 8 6
51 9 5
51 10 4
51 11 5
51 12 1
51 13 3
51 14 2
51 15 6
51 16 4
51 17 4
51 18 6
51 19 6
51 20 1
51 21 4
51 22 2
51 23 5
51 24 6
51 25 4
51 26 2
51 27 6
51 28 5
51 29 5
51 30 1
51 31 6
51 32 6
51 33 6
51 34 6
51 35 3
51 36 3
51 37 5
51 38 5
51 39 4
51 40 6
51 41 6
51 42 2
51 43 3
51 44 2
51 45 4
51 46 4
51 47 4
51 48 5
51 49 1
51 50 5
52 0 1
52 1 4
52 2 1
52 3 4
52 4 3
52 5 5
52 6 2
52 7 4
52 8 6
52 9 5
52 10 4
52 11 2
52 12 5
52 13 1
52 14 1
52 15 2
52 16 4
52 17 1
52 18 6
52 19 3
52 20 4
52 21 4
52 22 1
52 23 6
52 24 2
52 25 2
52 26 6
52 27 5
52 28 1
52 29 1
52 30 5
52 31 5
52 32 4
52 33 4
52 34 2
52 35 1
52 36 4
52 37 1
52 38 1
52 39 2
52 40 4
52 41 3
52 42 5
52 43 3
52 44 3
52 45 4
52 46 6
52 47 3
52 48 5
52 49 3
52 50 6
52 51 4
53 0 5
53 1 5
53 2 2
53 3 1
53 4 3
53 5 1
53 6 1
53 7 5
53 8 3
53 9 5
53 10 4
53 11 5
53 12 2
53 13 5
53 14 2
53 15 3
53 16 6
53 17 3
53 18 4
53 19 6
53 20 5
53 21 1
53 22 6
53 23 3
53 24 1
53 25 5
53 26 2
53 27 5
53 28 4
53 29 6
53 30 2
53 31 5
53 32 4
53 33 4
53 34 2
53 35 2
53 36 6
53 37 4
53 38 6
53 39 6
53 40 1
53 41 6
53 42 5
53 43 6
53 44 2
53 45 6
53 46 6
53 47 2
53 48 3
53 49 1
53 50 5
53 51 6
53 52 4
54 0 4
54 1 1
54 2 6
54 3 2
54 4 1
54 5 2
54 6 6
54 7 1
54 8 6
54 9 5
54 10 4
54 11 3
54 12 5
54 13 3
54 14 1
54 15 6
54 16 4
54 17 6
54 18 3
54 19 6
54 20 4
54 21 5
54 22 1
54 23 5
54 24 1
54 25 6
54 26 5
54 27 4
54 28 2
54 29 4
54 30 2
54 31 3
54 32 3
54 33 5
54 34 5
54 35 3
54 36 4
54 37 5
54 38 3
54 39 3
54 40 6
54 41 2
54 42 4
54 43 3
54 44 3
54 45 1
54 46 1
54 47 3
54 48 6
54 49 4
54 50 3
54 51 1
54 52 1
54 53 2
55 0 6
55 1 1
55 2 3
55 3 4
55 4 3
55 5 1
55 6 1
55 7 2
55 8 3
55 9 6
55 10 6
55 11 2
55 12 2
55 13 3
55 14 6
55 15 1
55 16 3
55 17 3
55 18 4
55 19 1
55 20 3
55 21 1
55 22 5
55 23 6
55 24 4
55 25 2
55 26 6
55 27 3
55 28 1
55 29 4
55 30 2
55 31 6
55 32 1
55 33 4
55 34 4
55 35 6
55 36 1
55 37 5
55 38 2
55 39 3
55 40 3
55 41 4
55 42 3
55 43 5
55 44 1
55 45 2
55 46 5
55 47 3
55 48 1
55 49 3
55 50 2
55 51 6
55 52 1
55 53 3
55 54 3
56 0 5
56 1 4
56 2 2
56 3 1
56 4 1
56 5 2
56 6 3
56 7 3
56 8 5
56 9 2
56 10 6
56 11 2
56 12 3
56 13 6
56 14 2
56 15 3
56 16 3
56 17 4
56 18 6
56 19 6
56 20 4
56 21 3
56 22 2
56 23 6
56 24 4
56 25 1
56 26 4
56 27 5
56 28 6
56 29 5
56 30 1
56 31 1
56 32 5
56 33 2
56 34 3
56 35 3
56 36 2
56 37 2
56 38 4
56 39 3
56 40 1
56 41 5
56 42 3
56 43 1
56 44 2
56 45 2
56 46 2
56 47 3
56 48 2
56 49 5
56 50 3
56 51 6
56 52 6
56 53 1
56 54 5
56 55 5
57 0 1
57 1 5
57 2 3
57 3 3
57 4 6
57 5 5
57 6 5
57 7 1
57 8 3
57 9 3
57 10 5
57 11 2
57 12 1
57 13 2
57 14 2
57 15 1
57 16 2
57 17 3
57 18 2
57 19 2
57 20 3
57 21 2
57 22 3
57 23 6
57 24 4
57 25 3
57 26 2
57 27 4
57 28 6
57 29 1
57 30 6
57 31 2
57 32 6
57 33 5
57 34 4
57 35 2
57 36 2
57 37 4
57 38 3
57 39 3
57 40 5
57 41 1
57 42 5
57 43 6
57 44 6
57 45 5
57 46 1
57 47 3
57 48 5
57 49 2
57 50 5
57 51 6
57 52 1
57 53 2
57 54 1
57 55 3
57 56 5
58 0 3
58 1 1
58 2 4
58 3 3
58 4 4
58 5 4
58 6 3
58 7 3
58 8 5
58 9 4
58 10 3
58 11 1
58 12 1
58 13 4
58 14 6
58 15 6
58 16 2
58 17 5
58 18 1
58 19 3
58 20 5
58 21 3
58 22 3
58 23 1
58 24 2
58 25 1
58 26 5
58 27 2
58 28 4
58 29 1
58 30 3
58 31 4
58 32 6
58 33 4
58 34 3
58 35 1
58 36 4
58 37 1
58 38 6
58 39 2
58 40 3
58 41 2
58 42 1
58 43 2
58 44 4
58 45 5
58 46 1
58 47 1
58 48 1
58 49 6
58 50 4
58 51 5
58 52 3
58 53 5
58 54 2
58 55 3
58 56 1
58 57 4
59 0 5
59 1 2
59 2 6
59 3 6
59 4 1
59 5 5
59 6 2
59 7 3
59 8 4
59 9 6
59 10 2
59 11 2
59 12 6
59 13 2
59 14 6
59 15 3
59 16 1
59 17 4
59 18 6
59 19 3
59 20 3
59 21 1
59 22 3
59 23 4
59 24 3
59 25 6
59 26 2
59 27 4
59 28 5
59 29 3
59 30 3
59 31 1
59 32 4
59 33 4
59 34 1
59 35 5
59 36 4
59 37 2
59 38 1
59 39 6
59 40 3
59 41 5
59 42 3
59 43 5
59 44 6
59 45 4
59 46 1
59 47 1
59 48 4
59 49 4
59 50 2
59 51 3
59 52 1
59 53 5
59 54 1
59 55 5
59 56 6
59 57 1
59 58 6
